<number of tasks>
100

<cycle time>
1000

<order strength>
0.596


<task times>
1 517
2 710
3 528
4 403
5 602
6 485
7 494
8 546
9 347
10 319
11 493
12 485
13 426
14 557
15 465
16 538
17 323
18 598
19 312
20 512
21 430
22 492
23 417
24 440
25 720
26 670
27 473
28 605
29 569
30 384
31 395
32 468
33 298
34 592
35 599
36 520
37 296
38 348
39 602
40 628
41 673
42 381
43 304
44 608
45 383
46 590
47 510
48 598
49 565
50 432
51 466
52 535
53 265
54 465
55 430
56 564
57 420
58 377
59 518
60 569
61 569
62 529
63 484
64 421
65 583
66 636
67 546
68 320
69 503
70 479
71 439
72 381
73 558
74 544
75 668
76 452
77 594
78 703
79 536
80 727
81 397
82 371
83 358
84 473
85 416
86 347
87 450
88 671
89 618
90 512
91 378
92 500
93 434
94 558
95 429
96 664
97 570
98 499
99 459
100 509

<precedence relations>
1,8
2,8
3,8
4,8
5,58
6,7
6,9
6,10
6,11
6,12
6,26
7,87
8,13
8,14
8,15
8,16
8,17
8,18
8,19
8,20
8,21
8,22
8,23
8,24
9,58
10,71
11,25
11,31
12,28
12,29
12,57
12,68
13,38
13,44
14,27
14,34
15,28
16,35
16,49
17,35
17,36
18,30
19,31
19,35
19,36
20,26
21,28
21,32
21,34
21,47
21,68
22,43
23,57
23,58
24,31
25,27
25,29
25,48
25,57
26,58
27,58
28,58
29,71
30,32
30,33
30,34
30,35
30,36
31,38
31,39
32,87
33,87
34,58
35,71
36,37
36,38
36,39
37,87
38,45
39,40
39,41
39,42
39,43
39,44
40,87
41,45
42,45
43,45
44,46
44,47
44,48
44,49
45,50
45,51
45,52
45,53
45,54
45,55
45,57
46,58
47,58
48,58
49,56
49,59
49,60
50,58
51,70
52,59
52,72
53,60
54,69
54,88
56,58
57,70
58,61
58,62
58,63
58,64
58,65
58,66
58,67
58,69
58,70
59,71
60,67
60,68
60,69
61,71
62,73
63,84
64,72
65,74
66,71
67,71
69,84
70,72
70,73
71,74
71,75
71,76
71,77
71,78
71,79
71,80
71,81
71,82
72,83
73,87
74,87
77,86
79,84
81,85
84,87
86,88
86,99
87,89
87,90
87,91
87,92
87,93
87,94
87,95
87,96
87,97
87,98
89,100
93,100
94,99

<end>
